src/asp/benchmarks/large10.lp
citta(terni).
citta(narni).
citta(foligno).
citta(spoleto).
citta(amelia).
citta(marsciano).
citta(orvieto).
citta(assisi).
citta(magione).
citta(corciano).
citta(umbertide).
citta(perugia).
citta(bastia_umbra).
citta(san_giustino).
citta(citta_di_castello).
citta(todi).
citta(gualdo_tardino).
citta(castiglione_del_lago).
citta(gubbio).

richiesta(terni, strade, 27).
richiesta(terni, fiumi, 165).
richiesta(terni, scuole, 19).
richiesta(terni, parchi, 69).
richiesta(terni, energia, 25).

richiesta(narni, strade, 356).
richiesta(narni, fiumi, 59).
richiesta(narni, scuole, 86).
richiesta(narni, parchi, 503).
richiesta(narni, energia, 235).

richiesta(foligno, strade, 12).
richiesta(foligno, fiumi, 61).
richiesta(foligno, scuole, 91).
richiesta(foligno, parchi, 109).
richiesta(foligno, energia, 81).

richiesta(spoleto, strade, 86).
richiesta(spoleto, fiumi, 48).
richiesta(spoleto, scuole, 12).
richiesta(spoleto, parchi, 179).
richiesta(spoleto, energia, 212).

richiesta(amelia, strade, 84).
richiesta(amelia, fiumi, 404).
richiesta(amelia, scuole, 56).
richiesta(amelia, parchi, 192).
richiesta(amelia, energia, 49).

richiesta(marsciano, strade, 235).
richiesta(marsciano, fiumi, 90).
richiesta(marsciano, scuole, 88).
richiesta(marsciano, parchi, 61).
richiesta(marsciano, energia, 62).

richiesta(orvieto, strade, 26).
richiesta(orvieto, fiumi, 110).
richiesta(orvieto, scuole, 111).
richiesta(orvieto, parchi, 3).
richiesta(orvieto, energia, 119).

richiesta(assisi, strade, 71).
richiesta(assisi, fiumi, 20).
richiesta(assisi, scuole, 51).
richiesta(assisi, parchi, 50).
richiesta(assisi, energia, 0).

richiesta(magione, strade, 43).
richiesta(magione, fiumi, 47).
richiesta(magione, scuole, 216).
richiesta(magione, parchi, 49).
richiesta(magione, energia, 119).

richiesta(corciano, strade, 21).
richiesta(corciano, fiumi, 239).
richiesta(corciano, scuole, 17).
richiesta(corciano, parchi, 39).
richiesta(corciano, energia, 133).

richiesta(umbertide, strade, 15).
richiesta(umbertide, fiumi, 3).
richiesta(umbertide, scuole, 45).
richiesta(umbertide, parchi, 114).
richiesta(umbertide, energia, 320).

richiesta(perugia, strade, 30).
richiesta(perugia, fiumi, 41).
richiesta(perugia, scuole, 274).
richiesta(perugia, parchi, 52).
richiesta(perugia, energia, 428).

richiesta(bastia_umbra, strade, 17).
richiesta(bastia_umbra, fiumi, 4).
richiesta(bastia_umbra, scuole, 9).
richiesta(bastia_umbra, parchi, 73).
richiesta(bastia_umbra, energia, 24).

richiesta(san_giustino, strade, 220).
richiesta(san_giustino, fiumi, 51).
richiesta(san_giustino, scuole, 199).
richiesta(san_giustino, parchi, 103).
richiesta(san_giustino, energia, 117).

richiesta(citta_di_castello, strade, 118).
richiesta(citta_di_castello, fiumi, 188).
richiesta(citta_di_castello, scuole, 98).
richiesta(citta_di_castello, parchi, 64).
richiesta(citta_di_castello, energia, 200).

richiesta(todi, strade, 104).
richiesta(todi, fiumi, 73).
richiesta(todi, scuole, 3).
richiesta(todi, parchi, 78).
richiesta(todi, energia, 268).

richiesta(gualdo_tardino, strade, 58).
richiesta(gualdo_tardino, fiumi, 20).
richiesta(gualdo_tardino, scuole, 175).
richiesta(gualdo_tardino, parchi, 56).
richiesta(gualdo_tardino, energia, 32).

richiesta(castiglione_del_lago, strade, 29).
richiesta(castiglione_del_lago, fiumi, 73).
richiesta(castiglione_del_lago, scuole, 26).
richiesta(castiglione_del_lago, parchi, 109).
richiesta(castiglione_del_lago, energia, 227).

richiesta(gubbio, strade, 40).
richiesta(gubbio, fiumi, 4).
richiesta(gubbio, scuole, 185).
richiesta(gubbio, parchi, 111).
richiesta(gubbio, energia, 235).

